20
0 1 0.4 0.27
0 2 0.68 0.3
0 3 0.58 0.1
0 4 0.5 0.26
0 5 0.6 0.44
0 6 0.54 0.43
0 7 0.56 0.37
0 8 0.66 0.38
0 9 0.46 0.29
0 10 0.22 0.18
0 11 0.65 0.28
0 12 0.58 0.27
0 13 0.42 0.32
0 14 0.44 0.27
0 15 0.16 0.11
0 16 0.54 0.28
0 17 0.64 0.4
0 18 0.78 0.47
0 19 0.61 0.13
1 2 0.46 0.37
1 3 0.5 0.17
1 4 0.74 0.33
1 5 0.67 0.21
1 6 0.77 0.25
1 7 0.74 0.28
1 8 0.26 0.21
1 9 0.65 0.28
1 10 0.62 0.36
1 11 0.76 0.35
1 12 0.61 0.38
1 13 0.68 0.29
1 14 0.58 0.46
1 15 0.48 0.3
1 16 0.36 0.34
1 17 0.53 0.15
1 18 0.51 0.21
1 19 0.44 0.28
2 3 0.38 0.2
2 4 0.66 0.32
2 5 0.26 0.24
2 6 0.72 0.28
2 7 0.49 0.38
2 8 0.72 0.34
2 9 0.82 0.34
2 10 0.64 0.26
2 11 0.62 0.33
2 12 0.56 0.3
2 13 0.68 0.42
2 14 0.8 0.18
2 15 0.52 0.2
2 16 0.36 0.22
2 17 0.55 0.3
2 18 0.7 0.44
2 19 0.84 0.18
3 4 0.28 0.16
3 5 0.64 0.34
3 6 0.55 0.37
3 7 0.52 0.27
3 8 0.6 0.38
3 9 0.52 0.39
3 10 0.52 0.28
3 11 0.46 0.31
3 12 0.69 0.21
3 13 0.66 0.41
3 14 0.62 0.3
3 15 0.5 0.21
3 16 0.58 0.18
3 17 0.5 0.3
3 18 0.58 0.38
3 19 0.86 0.23
4 5 0.75 0.25
4 6 0.67 0.21
4 7 0.8 0.21
4 8 0.48 0.28
4 9 0.53 0.35
4 10 0.69 0.27
4 11 0.74 0.23
4 12 0.41 0.05
4 13 0.38 0.37
4 14 0.34 0.14
4 15 0.46 0.18
4 16 0.42 0.15
4 17 0.74 0.31
4 18 0.74 0.35
4 19 0.74 0.19
5 6 0.46 0.04
5 7 0.75 0.24
5 8 0.47 0.16
5 9 0.78 0.18
5 10 0.42 0.3
5 11 0.5 0.2
5 12 0.4 0.2
5 13 0.45 0.2
5 14 0.64 0.33
5 15 0.57 0.36
5 16 0.62 0.32
5 17 0.48 0.06
5 18 0.5 0.2
5 19 0.72 0.34
6 7 0.85 0.28
6 8 0.54 0.2
6 9 0.73 0.14
6 10 0.48 0.34
6 11 0.8 0.16
6 12 0.45 0.16
6 13 0.6 0.24
6 14 0.69 0.29
6 15 0.7 0.32
6 16 0.76 0.28
6 17 0.84 0.1
6 18 0.82 0.16
6 19 0.5 0.3
7 8 0.79 0.4
7 9 0.72 0.42
7 10 0.64 0.38
7 11 0.72 0.18
7 12 0.75 0.16
7 13 0.69 0.26
7 14 0.52 0.2
7 15 0.72 0.32
7 16 0.85 0.28
7 17 0.63 0.18
7 18 0.84 0.31
7 19 0.69 0.3
8 9 0.39 0.26
8 10 0.75 0.2
8 11 0.74 0.36
8 12 0.44 0.33
8 13 0.58 0.16
8 14 0.68 0.42
8 15 0.5 0.3
8 16 0.6 0.28
8 17 0.69 0.22
8 18 0.58 0.36
8 19 0.49 0.28
9 10 0.36 0.22
9 11 0.74 0.3
9 12 0.72 0.3
9 13 0.59 0.3
9 14 0.52 0.34
9 15 0.3 0.18
9 16 0.68 0.38
9 17 0.8 0.24
9 18 0.76 0.3
9 19 0.52 0.16
10 11 0.7 0.23
10 12 0.36 0.22
10 13 0.59 0.16
10 14 0.6 0.26
10 15 0.38 0.1
10 16 0.32 0.17
10 17 0.66 0.29
10 18 0.85 0.46
10 19 0.59 0.08
11 12 0.68 0.18
11 13 0.43 0.34
11 14 0.62 0.3
11 15 0.81 0.17
11 16 0.57 0.3
11 17 0.29 0.26
11 18 0.67 0.32
11 19 0.54 0.15
12 13 0.43 0.33
12 14 0.24 0.13
12 15 0.74 0.16
12 16 0.37 0.12
12 17 0.56 0.26
12 18 0.56 0.3
12 19 0.35 0.14
13 14 0.56 0.4
13 15 0.58 0.26
13 16 0.8 0.3
13 17 0.72 0.14
13 18 0.77 0.4
13 19 0.74 0.24
14 15 0.54 0.16
14 16 0.61 0.25
14 17 0.78 0.38
14 18 0.72 0.43
14 19 0.59 0.18
15 16 0.7 0.24
15 17 0.7 0.34
15 18 0.74 0.36
15 19 0.68 0.02
16 17 0.64 0.29
16 18 0.53 0.42
16 19 0.72 0.22
17 18 0.82 0.26
17 19 0.36 0.32
18 19 0.46 0.38
